5756016.0
2606
0 3 4 5 6 7 8 9 10 11 12 13 15 16 17 18 19 20 21 24 26 28 30 31 32 35 37 39 40 41 44 46 47 48 49 50 53 54 55 56 57 58 59 60 61 62 63 64 66 67 69 70 72 73 75 76 77 79 80 81 82 84 85 88 90 93 95 97 98 99 101 102 103 104 106 107 108 109 112 113 114 115 118 120 121 122 123 124 125 127 128 129 130 131 132 136 137 138 139 141 142 146 147 148 149 150 151 153 154 156 158 159 161 162 164 166 169 171 172 173 175 176 177 178 179 181 182 184 185 186 187 188 190 191 192 193 194 196 198 199 